(set-option :print-success false)
(set-logic QF_UF)
(declare-sort x101 0)
(declare-sort x60 0)
(declare-fun x137 () x60)
(declare-fun x80 () x60)
(declare-fun x18 () x60)
(declare-fun x83 (x60 x60) x60)
(declare-fun x114 (x60 x60) x60)
(declare-fun x64 () x60)
(declare-fun x45 () x60)
(assert (let ((x11 (x83 x18 x18)) (x139 (x83 x64 x64)) (x34 (x83 x45 x45)) (x140 (x83 x137 x137)) (x97 (x83 x80 x80))) (or (and (not (= x64 x139)) (and (not (= x11 x64)) (and (and (not (= x97 x64)) (not (= x64 x140))) (not (= x64 x34))))) (or (or (and (not (= x45 x139)) (and (and (and (not (= x45 x97)) (not (= x140 x45))) (not (= x45 x34))) (not (= x45 x11)))) (or (and (not (= x139 x137)) (and (and (not (= x34 x137)) (and (not (= x140 x137)) (not (= x137 x97)))) (not (= x11 x137)))) (and (and (and (not (= x80 x34)) (and (not (= x80 x97)) (not (= x140 x80)))) (not (= x11 x80))) (not (= x80 x139))))) (and (not (= x18 x139)) (and (not (= x11 x18)) (and (not (= x18 x34)) (and (not (= x97 x18)) (not (= x18 x140))))))))))
(assert (let ((x97 (= (x83 x80 x80) x80)) (x24 (= x45 (x83 x45 x45))) (x2 (= (x83 x64 x64) x64)) (x12 (= x18 (x83 x18 x18))) (x34 (= x137 (x83 x137 x137)))) (let ((x139 (not x24)) (x21 (not x12)) (x140 (not x97)) (x11 (not x34)) (x155 (not x2))) (or (or (and x2 x155) (or (or (and (= (x83 x64 x45) x64) x139) (or (and (= (x83 x64 x80) x64) x140) (and x11 (= (x83 x64 x137) x64)))) (and (= (x83 x64 x18) x64) x21))) (or (or (or (or (or (and x11 (= (x83 x18 x137) x18)) (and (= (x83 x18 x80) x18) x140)) (and x139 (= x18 (x83 x18 x45)))) (and x12 x21)) (and (= (x83 x18 x64) x18) x155)) (or (or (or (or (or (and x139 (= x80 (x83 x80 x45))) (or (and x97 x140) (and x11 (= (x83 x80 x137) x80)))) (and x21 (= (x83 x80 x18) x80))) (and x155 (= (x83 x80 x64) x80))) (or (or (or (or (and x11 x34) (and (= x137 (x83 x137 x80)) x140)) (and x139 (= x137 (x83 x137 x45)))) (and (= x137 (x83 x137 x18)) x21)) (and (= (x83 x137 x64) x137) x155))) (or (and (= x45 (x83 x45 x64)) x155) (or (and x21 (= x45 (x83 x45 x18))) (or (or (and x11 (= x45 (x83 x45 x137))) (and x140 (= x45 (x83 x45 x80)))) (and x24 x139))))))))))
(assert (let ((x21 (x83 x80 x137)) (x24 (x83 x45 x137)) (x38 (x83 x137 x18)) (x41 (x83 x137 x45)) (x46 (x83 x64 x64)) (x108 (x83 x64 x18)) (x106 (x83 x80 x64)) (x151 (x83 x45 x64)) (x11 (x83 x18 x80)) (x85 (x83 x18 x45)) (x140 (x83 x137 x80)) (x138 (x83 x80 x18)) (x34 (x83 x45 x80)) (x136 (x83 x18 x18)) (x135 (x83 x45 x18)) (x139 (x83 x64 x80)) (x12 (x83 x18 x137)) (x30 (x83 x18 x64)) (x155 (x83 x137 x137)) (x97 (x83 x80 x80)) (x70 (x83 x80 x45)) (x121 (x83 x45 x45)) (x2 (x83 x64 x137)) (x107 (x83 x64 x45)) (x119 (x83 x137 x64))) (and (and (and (and (and (not (= x151 x135)) (and (not (= x151 x121)) (and (and (and (and (and (not (= x34 x151)) (and (and (not (= x34 x121)) (not (= x24 x34))) (not (= x34 x135)))) (not (= x24 x121))) (not (= x24 x135))) (not (= x24 x151))) (not (= x135 x121))))) (and (and (and (and (not (= x138 x70)) (and (and (and (not (= x70 x21)) (and (not (= x106 x97)) (and (not (= x138 x97)) (and (not (= x97 x70)) (not (= x21 x97)))))) (not (= x21 x138))) (not (= x106 x21)))) (not (= x70 x106))) (not (= x138 x106))) (and (not (= x38 x119)) (and (and (and (not (= x119 x155)) (and (and (and (and (and (not (= x41 x140)) (not (= x140 x155))) (not (= x38 x140))) (not (= x119 x140))) (not (= x41 x155))) (not (= x155 x38)))) (not (= x38 x41))) (not (= x119 x41)))))) (and (and (and (not (= x136 x85)) (and (not (= x12 x30)) (and (not (= x136 x12)) (and (not (= x12 x85)) (and (and (and (not (= x11 x85)) (not (= x12 x11))) (not (= x136 x11))) (not (= x11 x30))))))) (not (= x85 x30))) (not (= x136 x30)))) (and (and (not (= x107 x46)) (and (and (not (= x46 x2)) (and (not (= x108 x2)) (and (and (not (= x46 x139)) (and (not (= x108 x139)) (and (not (= x139 x107)) (not (= x2 x139))))) (not (= x2 x107))))) (not (= x108 x107)))) (not (= x46 x108)))) (and (and (and (and (and (not (= x12 x2)) (and (not (= x24 x2)) (and (and (not (= x155 x2)) (and (not (= x12 x155)) (and (and (and (and (not (= x21 x155)) (not (= x21 x24))) (not (= x12 x21))) (not (= x21 x2))) (not (= x24 x155))))) (not (= x24 x12))))) (and (and (not (= x139 x34)) (and (and (and (and (and (and (not (= x11 x97)) (and (not (= x140 x97)) (not (= x97 x34)))) (not (= x97 x139))) (not (= x140 x34))) (not (= x11 x140))) (not (= x140 x139))) (not (= x34 x11)))) (not (= x139 x11)))) (and (and (and (not (= x121 x85)) (and (and (and (and (not (= x70 x107)) (and (not (= x70 x85)) (and (not (= x121 x70)) (not (= x70 x41))))) (not (= x41 x121))) (not (= x85 x41))) (not (= x107 x41)))) (not (= x107 x121))) (not (= x107 x85)))) (and (not (= x108 x136)) (and (not (= x135 x108)) (and (and (and (and (and (and (not (= x136 x138)) (and (not (= x135 x138)) (not (= x38 x138)))) (not (= x138 x108))) (not (= x38 x135))) (not (= x38 x136))) (not (= x38 x108))) (not (= x135 x136)))))) (and (and (and (not (= x151 x30)) (and (not (= x119 x46)) (and (not (= x30 x119)) (and (not (= x151 x119)) (and (and (not (= x106 x30)) (and (not (= x119 x106)) (not (= x151 x106)))) (not (= x46 x106))))))) (not (= x151 x46))) (not (= x30 x46)))))))
(assert (and (and (and (or (= x45 (x83 (x83 x64 x45) x64)) (or (= x45 (x83 (x83 x18 x45) x18)) (or (= x45 (x83 (x83 x45 x45) x45)) (or (= (x83 (x83 x80 x45) x80) x45) (= (x83 (x83 x137 x45) x137) x45))))) (and (or (or (= x80 (x83 (x83 x18 x80) x18)) (or (= x80 (x83 (x83 x45 x80) x45)) (or (= (x83 (x83 x137 x80) x137) x80) (= x80 (x83 (x83 x80 x80) x80))))) (= x80 (x83 (x83 x64 x80) x64))) (or (or (or (or (= x137 (x83 (x83 x137 x137) x137)) (= (x83 (x83 x80 x137) x80) x137)) (= x137 (x83 (x83 x45 x137) x45))) (= (x83 (x83 x18 x137) x18) x137)) (= x137 (x83 (x83 x64 x137) x64))))) (or (or (= (x83 (x83 x18 x18) x18) x18) (or (or (= x18 (x83 (x83 x137 x18) x137)) (= x18 (x83 (x83 x80 x18) x80))) (= x18 (x83 (x83 x45 x18) x45)))) (= (x83 (x83 x64 x18) x64) x18))) (or (= (x83 (x83 x64 x64) x64) x64) (or (or (= x64 (x83 (x83 x45 x64) x45)) (or (= (x83 (x83 x80 x64) x80) x64) (= x64 (x83 (x83 x137 x64) x137)))) (= x64 (x83 (x83 x18 x64) x18))))))
(assert (and (and (and (and (or (or (= (x83 (x83 x18 x80) x80) x18) (or (= (x83 (x83 x45 x80) x80) x45) (or (= x80 (x83 (x83 x80 x80) x80)) (= (x83 (x83 x137 x80) x80) x137)))) (= x64 (x83 (x83 x64 x80) x80))) (or (or (or (= x45 (x83 (x83 x45 x137) x137)) (or (= (x83 (x83 x137 x137) x137) x137) (= x80 (x83 (x83 x80 x137) x137)))) (= (x83 (x83 x18 x137) x137) x18)) (= (x83 (x83 x64 x137) x137) x64))) (or (or (= x18 (x83 (x83 x18 x45) x45)) (or (= (x83 (x83 x45 x45) x45) x45) (or (= x137 (x83 (x83 x137 x45) x45)) (= x80 (x83 (x83 x80 x45) x45))))) (= (x83 (x83 x64 x45) x45) x64))) (or (= (x83 (x83 x64 x18) x18) x64) (or (or (= (x83 (x83 x45 x18) x18) x45) (or (= (x83 (x83 x137 x18) x18) x137) (= x80 (x83 (x83 x80 x18) x18)))) (= x18 (x83 (x83 x18 x18) x18))))) (or (or (or (= (x83 (x83 x45 x64) x64) x45) (or (= x137 (x83 (x83 x137 x64) x64)) (= x80 (x83 (x83 x80 x64) x64)))) (= x18 (x83 (x83 x18 x64) x64))) (= (x83 (x83 x64 x64) x64) x64))))
(assert (or (= (x83 x64 x64) x64) (or (= (x83 x18 x18) x18) (or (= (x83 x45 x45) x45) (or (= x137 (x83 x137 x137)) (= (x83 x80 x80) x80))))))
(assert (let ((x119 (x83 x137 x64)) (x31 (x83 x64 x137)) (x76 (x83 x64 x18)) (x10 (x83 x64 x64)) (x139 (x83 x80 x18)) (x21 (x83 x80 x64)) (x87 (x83 x45 x45)) (x12 (x83 x45 x80)) (x34 (x83 x80 x137)) (x108 (x83 x137 x45)) (x140 (x83 x80 x80)) (x106 (x83 x137 x18)) (x11 (x83 x80 x45)) (x2 (x83 x18 x80)) (x6 (x83 x18 x18)) (x103 (x83 x18 x64)) (x53 (x83 x18 x45)) (x9 (x83 x64 x45)) (x104 (x83 x45 x64)) (x24 (x83 x137 x80)) (x70 (x83 x64 x80)) (x142 (x83 x18 x137)) (x136 (x83 x137 x137)) (x17 (x83 x45 x18)) (x46 (x83 x45 x137))) (let ((x144 (= x18 x136)) (x105 (= x64 x17)) (x65 (= x18 x87)) (x99 (= x64 x34)) (x138 (= x34 x80)) (x88 (= x70 x64)) (x58 (= x119 x45)) (x111 (= x80 x108)) (x15 (= x12 x45)) (x118 (= x142 x80)) (x50 (= x119 x18)) (x8 (= x137 x10)) (x37 (= x80 x103)) (x27 (= x104 x45)) (x117 (= x2 x137)) (x143 (= x18 x108)) (x93 (= x18 x17)) (x28 (= x18 x9)) (x146 (= x64 x6)) (x90 (= x45 x103)) (x126 (= x137 x6)) (x130 (= x137 x87)) (x100 (= x64 x106)) (x63 (= x18 x104)) (x124 (= x108 x137)) (x129 (= x17 x137)) (x75 (= x137 x76)) (x57 (= x137 x119)) (x47 (= x106 x45)) (x30 (= x136 x137)) (x149 (= x139 x80)) (x156 (= x104 x80)) (x132 (= x45 x136)) (x40 (= x106 x18)) (x133 (= x142 x18)) (x39 (= x21 x18)) (x43 (= x46 x64)) (x109 (= x80 x53)) (x66 (= x11 x80)) (x22 (= x137 x9)) (x35 (= x17 x80)) (x98 (= x103 x137)) (x97 (= x80 x140)) (x131 (= x31 x137)) (x7 (= x103 x64)) (x123 (= x21 x137)) (x148 (= x80 x10)) (x145 (= x80 x12)) (x92 (= x18 x46)) (x157 (= x31 x64)) (x3 (= x108 x64)) (x52 (= x137 x104)) (x51 (= x45 x11)) (x89 (= x87 x64)) (x94 (= x45 x53)) (x67 (= x6 x45)) (x150 (= x18 x6)) (x107 (= x24 x80)) (x102 (= x18 x139)) (x55 (= x17 x45)) (x38 (= x136 x80)) (x113 (= x9 x80)) (x120 (= x108 x45)) (x36 (= x70 x137)) (x48 (= x46 x80)) (x26 (= x34 x45)) (x73 (= x80 x6)) (x125 (= x142 x45)) (x41 (= x140 x45)) (x134 (= x119 x64)) (x5 (= x11 x64)) (x79 (= x18 x10)) (x121 (= x18 x140)) (x78 (= x139 x45)) (x23 (= x80 x70)) (x74 (= x2 x18)) (x152 (= x45 x31)) (x32 (= x76 x80)) (x151 (= x137 x34)) (x71 (= x80 x106)) (x68 (= x142 x137)) (x141 (= x18 x53)) (x122 (= x45 x24)) (x95 (= x45 x2)) (x20 (= x31 x18)) (x91 (= x53 x64)) (x85 (= x64 x140)) (x4 (= x80 x31)) (x25 (= x64 x2)) (x16 (= x76 x45)) (x154 (= x64 x104)) (x84 (= x18 x70)) (x82 (= x137 x46)) (x159 (= x45 x21)) (x112 (= x12 x137)) (x13 (= x87 x80)) (x42 (= x21 x64)) (x116 (= x11 x137)) (x49 (= x12 x18)) (x155 (= x137 x140)) (x19 (= x119 x80)) (x69 (= x11 x18)) (x115 (= x64 x24)) (x54 (= x80 x21)) (x96 (= x87 x45)) (x33 (= x64 x142)) (x158 (= x137 x53)) (x14 (= x139 x137)) (x61 (= x76 x18)) (x59 (= x64 x10)) (x1 (= x64 x76)) (x44 (= x10 x45)) (x153 (= x18 x24)) (x128 (= x45 x70)) (x110 (= x45 x9)) (x81 (= x18 x103)) (x135 (= x137 x24)) (x62 (= x46 x45)) (x147 (= x136 x64)) (x127 (= x64 x9)) (x29 (= x12 x64)) (x72 (= x80 x2)) (x86 (= x139 x64)) (x56 (= x106 x137)) (x77 (= x34 x18))) (and (and (and (and (and (and (and (or (or (or x49 (or x153 x121)) x74) x84) (or (or (or x69 (or x77 x121)) x102) x39)) (and (and (or (or x78 (or (or x26 x41) x51)) x159) (or (or x95 (or (or x41 x122) x15)) x128)) (and (and (or x123 (or x14 (or (or x155 x151) x116))) (or (or (or (or x155 x135) x112) x117) x36)) (and (or (or x72 (or x145 (or x107 x97))) x23) (or (or x149 (or (or x138 x97) x66)) x54))))) (and (or (or (or x5 (or x85 x99)) x86) x42) (or (or x25 (or (or x115 x85) x29)) x88))) (and (and (or (or x100 (or x3 (or x147 x115))) x134) (or (or (or (or x99 x147) x43) x33) x157)) (and (and (and (or (or x125 (or (or x132 x26) x62)) x152) (or (or (or (or x132 x122) x120) x47) x58)) (and (and (or (or (or x48 (or x138 x38)) x118) x4) (or (or (or x111 (or x107 x38)) x71) x19)) (and (or x57 (or x56 (or x124 (or x30 x135)))) (or x131 (or (or x82 (or x30 x151)) x68))))) (and (or x50 (or x40 (or (or x153 x144) x143))) (or x20 (or (or (or x144 x77) x92) x133)))))) (and (and (or (or (or x89 (or x3 x5)) x91) x127) (or (or x105 (or (or x43 x29) x89)) x154)) (and (and (and (and (or (or x158 (or (or x116 x124) x130)) x22) (or (or (or x130 (or x112 x82)) x129) x52)) (and (or x113 (or (or (or x66 x111) x13) x109)) (or (or (or (or x48 x145) x13) x35) x156))) (and (or x27 (or (or (or x62 x15) x96) x55)) (or (or x94 (or (or x51 x120) x96)) x110))) (and (or (or (or (or x69 x143) x65) x141) x28) (or (or (or x65 (or x49 x92)) x93) x63))))) (and (and (or (or (or x91 (or x33 x25)) x146) x7) (or x1 (or x146 (or (or x86 x100) x105)))) (and (and (and (or x90 (or x67 (or x94 (or x125 x95)))) (or (or (or x55 (or x78 x47)) x67) x16)) (and (and (or x98 (or x126 (or (or x117 x68) x158))) (or (or x126 (or x129 (or x56 x14))) x75)) (and (or x37 (or x73 (or x109 (or x72 x118)))) (or x32 (or (or x35 (or x149 x71)) x73))))) (and (or (or (or x141 (or x133 x74)) x150) x81) (or x61 (or x150 (or x93 (or x102 x40)))))))) (and (and (or x59 (or (or (or x134 x42) x154) x7)) (or x59 (or x1 (or (or x88 x157) x127)))) (and (and (or (or (or (or x84 x20) x28) x61) x79) (or x79 (or x81 (or (or x39 x50) x63)))) (and (and (or x44 (or (or (or x58 x159) x27) x90)) (or (or (or (or x152 x128) x110) x16) x44)) (and (and (or x148 (or (or (or x54 x19) x156) x37)) (or x148 (or (or x113 (or x4 x23)) x32))) (and (or (or (or (or x57 x123) x52) x98) x8) (or (or x75 (or x22 (or x36 x131))) x8))))))))))
(assert (and (and (and (and (or (= x80 (x83 x64 (x83 x80 x64))) (or (= (x83 x18 (x83 x80 x18)) x80) (or (= (x83 x45 (x83 x80 x45)) x80) (or (= x80 (x83 x80 (x83 x80 x80))) (= x80 (x83 x137 (x83 x80 x137))))))) (or (or (or (or (= x137 (x83 x137 (x83 x137 x137))) (= (x83 x80 (x83 x137 x80)) x137)) (= (x83 x45 (x83 x137 x45)) x137)) (= x137 (x83 x18 (x83 x137 x18)))) (= x137 (x83 x64 (x83 x137 x64))))) (or (or (or (= (x83 x45 (x83 x45 x45)) x45) (or (= x45 (x83 x137 (x83 x45 x137))) (= x45 (x83 x80 (x83 x45 x80))))) (= x45 (x83 x18 (x83 x45 x18)))) (= x45 (x83 x64 (x83 x45 x64))))) (or (= (x83 x64 (x83 x18 x64)) x18) (or (= x18 (x83 x18 (x83 x18 x18))) (or (= (x83 x45 (x83 x18 x45)) x18) (or (= x18 (x83 x137 (x83 x18 x137))) (= (x83 x80 (x83 x18 x80)) x18)))))) (or (= (x83 x64 (x83 x64 x64)) x64) (or (= x64 (x83 x18 (x83 x64 x18))) (or (or (= x64 (x83 x137 (x83 x64 x137))) (= x64 (x83 x80 (x83 x64 x80)))) (= x64 (x83 x45 (x83 x64 x45))))))))
(assert (let ((x41 (x83 x45 x137)) (x135 (x83 x18 x45)) (x24 (x83 x137 x45)) (x38 (x83 x18 x137)) (x108 (x83 x18 x64)) (x139 (x83 x80 x64)) (x2 (x83 x137 x64)) (x121 (x83 x45 x45)) (x106 (x83 x64 x80)) (x70 (x83 x45 x80)) (x11 (x83 x80 x18)) (x85 (x83 x45 x18)) (x136 (x83 x18 x18)) (x119 (x83 x64 x137)) (x138 (x83 x18 x80)) (x30 (x83 x64 x18)) (x107 (x83 x45 x64)) (x97 (x83 x80 x80)) (x21 (x83 x137 x80)) (x12 (x83 x137 x18)) (x151 (x83 x64 x45)) (x34 (x83 x80 x45)) (x155 (x83 x137 x137)) (x140 (x83 x80 x137)) (x46 (x83 x64 x64))) (and (and (and (and (and (and (and (and (or (or (or (= x97 x45) (or (= x97 x137) (= x97 x80))) (= x18 x97)) (= x97 x64)) (or (= x140 x64) (or (= x18 x140) (or (= x140 x45) (or (= x140 x80) (= x137 x140)))))) (or (or (or (= x34 x45) (or (= x34 x137) (= x80 x34))) (= x18 x34)) (= x64 x34))) (or (or (or (= x45 x11) (or (= x11 x80) (= x11 x137))) (= x11 x18)) (= x11 x64))) (or (= x139 x64) (or (or (= x45 x139) (or (= x137 x139) (= x80 x139))) (= x139 x18)))) (and (or (= x2 x64) (or (= x18 x2) (or (or (= x2 x137) (= x2 x80)) (= x45 x2)))) (and (and (or (or (= x18 x24) (or (= x45 x24) (or (= x24 x137) (= x80 x24)))) (= x64 x24)) (and (or (= x64 x155) (or (= x18 x155) (or (= x45 x155) (or (= x155 x80) (= x155 x137))))) (or (= x21 x64) (or (= x21 x18) (or (= x21 x45) (or (= x21 x80) (= x137 x21))))))) (or (or (= x18 x12) (or (= x45 x12) (or (= x137 x12) (= x80 x12)))) (= x12 x64))))) (and (or (or (or (= x45 x107) (or (= x80 x107) (= x107 x137))) (= x107 x18)) (= x64 x107)) (and (or (= x85 x64) (or (= x18 x85) (or (= x85 x45) (or (= x137 x85) (= x80 x85))))) (and (or (or (= x18 x121) (or (or (= x121 x137) (= x80 x121)) (= x121 x45))) (= x121 x64)) (and (or (or (or (or (= x41 x137) (= x41 x80)) (= x45 x41)) (= x41 x18)) (= x64 x41)) (or (= x64 x70) (or (or (= x70 x45) (or (= x137 x70) (= x70 x80))) (= x18 x70)))))))) (and (and (and (and (or (or (= x18 x38) (or (= x45 x38) (or (= x38 x80) (= x137 x38)))) (= x38 x64)) (or (or (= x18 x138) (or (= x138 x45) (or (= x138 x80) (= x138 x137)))) (= x64 x138))) (or (= x135 x64) (or (= x135 x18) (or (or (= x135 x137) (= x80 x135)) (= x45 x135))))) (or (= x136 x64) (or (or (or (= x136 x137) (= x136 x80)) (= x45 x136)) (= x136 x18)))) (or (= x108 x64) (or (or (= x45 x108) (or (= x108 x80) (= x137 x108))) (= x18 x108))))) (and (and (and (or (or (or (= x45 x151) (or (= x137 x151) (= x80 x151))) (= x18 x151)) (= x64 x151)) (and (or (or (= x18 x106) (or (= x106 x45) (or (= x106 x80) (= x106 x137)))) (= x64 x106)) (or (or (= x18 x119) (or (or (= x119 x80) (= x137 x119)) (= x45 x119))) (= x64 x119)))) (or (= x30 x64) (or (= x18 x30) (or (= x30 x45) (or (= x137 x30) (= x80 x30)))))) (or (= x46 x64) (or (or (or (= x137 x46) (= x46 x80)) (= x46 x45)) (= x18 x46)))))))
(assert (not (and (and (and (= x45 (x83 x64 x45)) (and (= (x83 x64 x137) x18) (and (= (x83 x64 x80) x64) (and (= (x83 x18 x64) x137) (and (and (= (x83 x18 x45) x64) (and (and (and (= (x83 x45 x64) x18) (and (= x80 (x83 x45 x18)) (and (= (x83 x45 x45) x137) (and (and (and (and (= x64 (x83 x137 x18)) (and (= (x83 x137 x45) x18) (and (and (and (= x64 (x83 x80 x64)) (and (and (and (= x137 (x83 x80 x137)) (= (x83 x80 x80) x18)) (= (x83 x80 x45) x80)) (= x45 (x83 x80 x18)))) (= x137 (x83 x137 x80))) (= (x83 x137 x137) x80)))) (= x45 (x83 x137 x64))) (= (x83 x45 x80) x45)) (= (x83 x45 x137) x64))))) (= (x83 x18 x80) x80)) (= x45 (x83 x18 x137)))) (= x18 (x83 x18 x18))))))) (= (x83 x64 x18) x137)) (= x80 (x83 x64 x64)))))
(assert (and (not (= x64 x18)) (and (and (and (not (= x137 x64)) (and (and (and (and (not (= x18 x80)) (and (not (= x137 x80)) (not (= x80 x45)))) (not (= x64 x80))) (not (= x45 x137))) (not (= x18 x137)))) (not (= x45 x18))) (not (= x45 x64)))))
(assert (or (and (and (and (= (x83 x64 (x83 x64 x45)) x45) (and (= x80 (x83 x64 (x83 x64 x80))) (= x137 (x83 x64 (x83 x64 x137))))) (= (x83 x64 (x83 x64 x18)) x18)) (= x64 (x83 x64 (x83 x64 x64)))) (or (and (= x64 (x83 x18 (x83 x18 x64))) (and (= x18 (x83 x18 (x83 x18 x18))) (and (= x45 (x83 x18 (x83 x18 x45))) (and (= x80 (x83 x18 (x83 x18 x80))) (= (x83 x18 (x83 x18 x137)) x137))))) (or (and (= (x83 x45 (x83 x45 x64)) x64) (and (and (= (x83 x45 (x83 x45 x45)) x45) (and (= (x83 x45 (x83 x45 x80)) x80) (= x137 (x83 x45 (x83 x45 x137))))) (= (x83 x45 (x83 x45 x18)) x18))) (or (and (= (x83 x80 (x83 x80 x64)) x64) (and (= x18 (x83 x80 (x83 x80 x18))) (and (and (= x137 (x83 x80 (x83 x80 x137))) (= (x83 x80 (x83 x80 x80)) x80)) (= (x83 x80 (x83 x80 x45)) x45)))) (and (= x64 (x83 x137 (x83 x137 x64))) (and (= (x83 x137 (x83 x137 x18)) x18) (and (= (x83 x137 (x83 x137 x45)) x45) (and (= (x83 x137 (x83 x137 x80)) x80) (= (x83 x137 (x83 x137 x137)) x137))))))))))
(assert (and (and (and (= x137 (x83 x45 x45)) (= x80 (x83 x45 x18))) (= x18 (x83 x137 x45))) (= (x83 x18 x45) x64)))
(assert (let ((x119 (x83 x137 x45)) (x13 (x83 x64 x137)) (x24 (x83 x80 x18)) (x145 (x83 x18 x18)) (x66 (x83 x64 x80)) (x132 (x83 x45 x18)) (x82 (x83 x64 x45)) (x30 (x83 x137 x64)) (x46 (x83 x45 x80)) (x140 (x83 x80 x80)) (x2 (x83 x80 x64)) (x48 (x83 x18 x64)) (x153 (x83 x45 x64)) (x151 (x83 x137 x18)) (x21 (x83 x80 x45)) (x115 (x83 x18 x137)) (x85 (x83 x137 x80)) (x77 (x83 x18 x80)) (x17 (x83 x64 x64)) (x108 (x83 x137 x137)) (x147 (x83 x18 x45)) (x87 (x83 x64 x18)) (x11 (x83 x80 x137)) (x26 (x83 x45 x45)) (x31 (x83 x45 x137))) (let ((x44 (= x153 x64)) (x33 (= x147 x18)) (x29 (= x31 x45)) (x5 (= x26 x45)) (x112 (= x137 x30)) (x50 (= x87 x45)) (x68 (= x18 x21)) (x121 (= x11 x137)) (x141 (= x18 x132)) (x113 (= x80 x66)) (x4 (= x140 x64)) (x133 (= x45 x147)) (x35 (= x77 x80)) (x102 (= x153 x18)) (x99 (= x151 x137)) (x15 (= x2 x45)) (x32 (= x11 x64)) (x126 (= x137 x115)) (x63 (= x145 x64)) (x8 (= x30 x64)) (x22 (= x80 x13)) (x110 (= x31 x64)) (x91 (= x45 x145)) (x61 (= x87 x137)) (x139 (= x21 x80)) (x90 (= x18 x82)) (x88 (= x64 x66)) (x56 (= x80 x115)) (x124 (= x45 x11)) (x107 (= x21 x137)) (x71 (= x140 x18)) (x78 (= x18 x46)) (x41 (= x85 x80)) (x53 (= x21 x45)) (x12 (= x80 x2)) (x10 (= x13 x137)) (x122 (= x137 x119)) (x106 (= x108 x137)) (x3 (= x80 x132)) (x118 (= x153 x80)) (x134 (= x45 x17)) (x70 (= x140 x137)) (x154 (= x87 x64)) (x49 (= x45 x119)) (x89 (= x137 x132)) (x97 (= x80 x140)) (x149 (= x153 x45)) (x43 (= x26 x137)) (x27 (= x64 x132)) (x7 (= x18 x17)) (x58 (= x45 x82)) (x34 (= x80 x11)) (x74 (= x18 x26)) (x28 (= x115 x64)) (x123 (= x64 x119)) (x143 (= x46 x45)) (x130 (= x46 x137)) (x55 (= x31 x18)) (x129 (= x18 x108)) (x54 (= x66 x137)) (x81 (= x18 x87)) (x51 (= x80 x31)) (x52 (= x151 x64)) (x152 (= x82 x80)) (x93 (= x80 x145)) (x47 (= x80 x147)) (x25 (= x137 x145)) (x100 (= x48 x80)) (x42 (= x82 x64)) (x6 (= x24 x18)) (x103 (= x18 x2)) (x16 (= x137 x82)) (x156 (= x45 x66)) (x148 (= x18 x66)) (x67 (= x147 x137)) (x125 (= x151 x18)) (x127 (= x13 x64)) (x1 (= x137 x17)) (x38 (= x2 x137)) (x120 (= x108 x45)) (x84 (= x64 x77)) (x59 (= x64 x17)) (x14 (= x85 x18)) (x116 (= x46 x80)) (x117 (= x77 x137)) (x36 (= x2 x64)) (x144 (= x80 x151)) (x105 (= x48 x137)) (x96 (= x31 x137)) (x37 (= x64 x24)) (x159 (= x64 x26)) (x92 (= x151 x45)) (x40 (= x77 x18)) (x104 (= x140 x45)) (x142 (= x119 x80)) (x155 (= x24 x80)) (x9 (= x45 x24)) (x158 (= x45 x77)) (x111 (= x80 x30)) (x157 (= x80 x17)) (x109 (= x153 x137)) (x86 (= x145 x18)) (x23 (= x18 x48)) (x136 (= x108 x80)) (x76 (= x18 x119)) (x20 (= x80 x87)) (x73 (= x18 x11)) (x62 (= x45 x85)) (x135 (= x137 x85)) (x19 (= x21 x64)) (x75 (= x108 x64)) (x79 (= x48 x64)) (x69 (= x45 x30)) (x57 (= x45 x13)) (x146 (= x48 x45)) (x98 (= x18 x13)) (x131 (= x85 x64)) (x138 (= x137 x24)) (x72 (= x132 x45)) (x94 (= x18 x30)) (x128 (= x46 x64)) (x39 (= x147 x64)) (x95 (= x115 x45)) (x65 (= x80 x26)) (x150 (= x115 x18))) (or (or (or (or (and (and (and (and (or x125 (not x25)) (and (and (or x144 (not x117)) (or x99 (not x126))) (or x92 (not x67)))) (or x52 (not x105))) (and (and (and (and (and (or (not x130) x142) (or (not x96) x122)) (or x49 (not x43))) (or x76 (not x89))) (or x123 (not x109))) (and (and (and (and (or x62 (not x107)) (and (or (not x121) x135) (or (not x70) x41))) (or x14 (not x138))) (or x131 (not x38))) (and (or (not x112) x75) (and (or x129 (not x99)) (and (and (or x136 (not x135)) (or x106 (not x106))) (or x120 (not x122)))))))) (and (or (not x1) x8) (and (or x94 (not x61)) (and (or x69 (not x16)) (and (or (not x54) x111) (or x112 (not x10))))))) (and (and (and (or (not x100) x37) (and (or (not x93) x6) (and (and (or x138 (not x56)) (or x155 (not x35))) (or x9 (not x47))))) (and (and (and (and (or (not x144) x73) (and (and (or (not x41) x34) (or (not x136) x121)) (or (not x142) x124))) (or x32 (not x111))) (and (or x4 (not x12)) (and (and (or x104 (not x139)) (and (or (not x34) x70) (or x97 (not x97)))) (or (not x155) x71)))) (and (or x19 (not x118)) (and (or (not x3) x68) (and (and (or (not x51) x107) (or x139 (not x116))) (or (not x65) x53)))))) (and (and (and (and (or (not x22) x38) (or (not x113) x12)) (or x15 (not x152))) (or x103 (not x20))) (or (not x157) x36)))) (and (and (or (not x134) x44) (and (and (or x149 (not x58)) (and (or (not x57) x109) (or x118 (not x156)))) (or x102 (not x50)))) (and (and (and (or (not x91) x141) (and (and (or x3 (not x158)) (or x89 (not x95))) (or x72 (not x133)))) (or x27 (not x146))) (and (and (and (and (and (or (not x29) x43) (or (not x143) x65)) (or (not x5) x5)) (or (not x72) x74)) (or (not x149) x159)) (and (and (and (or x78 (not x9)) (and (or x143 (not x53)) (and (or (not x104) x116) (or x130 (not x124))))) (or (not x15) x128)) (and (or (not x69) x110) (and (or x55 (not x92)) (and (or (not x49) x29) (and (or (not x62) x51) (or x96 (not x120))))))))))) (and (and (and (or x63 (not x23)) (and (and (or x91 (not x33)) (and (or (not x150) x25) (or x93 (not x40)))) (or (not x86) x86))) (and (and (and (and (and (and (or (not x14) x56) (or (not x129) x126)) (or x95 (not x76))) (or x150 (not x125))) (or (not x94) x28)) (and (or x84 (not x103)) (and (or x40 (not x6)) (and (or (not x68) x158) (and (or x117 (not x73)) (or (not x71) x35)))))) (and (and (and (or (not x74) x133) (and (or (not x78) x47) (or (not x55) x67))) (or x33 (not x141))) (or x39 (not x102))))) (and (and (or x23 (not x81)) (and (or (not x90) x146) (and (or (not x98) x105) (or (not x148) x100)))) (or x79 (not x7))))) (and (and (and (or (not x154) x7) (and (or x134 (not x42)) (and (or (not x88) x157) (or (not x127) x1)))) (or x59 (not x59))) (and (and (and (or (not x63) x81) (and (or (not x39) x50) (and (or (not x84) x20) (or x61 (not x28))))) (or (not x79) x154)) (and (and (and (or (not x36) x88) (and (and (or (not x19) x156) (and (or x54 (not x32)) (or (not x4) x113))) (or x148 (not x37)))) (and (and (or (not x52) x98) (and (or (not x123) x57) (and (or (not x131) x22) (or x10 (not x75))))) (or x127 (not x8)))) (and (and (and (and (or x16 (not x110)) (or x152 (not x128))) (or x58 (not x159))) (or x90 (not x27))) (or (not x44) x42)))))))))
(assert (or (or (or (or (and (= (x83 (x83 x64 x137) x64) x137) (and (and (= (x83 (x83 x45 x137) x45) x137) (and (= (x83 (x83 x80 x137) x80) x137) (= x137 (x83 (x83 x137 x137) x137)))) (= (x83 (x83 x18 x137) x18) x137))) (and (and (and (= x80 (x83 (x83 x45 x80) x45)) (and (= x80 (x83 (x83 x80 x80) x80)) (= (x83 (x83 x137 x80) x137) x80))) (= (x83 (x83 x18 x80) x18) x80)) (= (x83 (x83 x64 x80) x64) x80))) (and (and (= (x83 (x83 x18 x45) x18) x45) (and (and (= (x83 (x83 x137 x45) x137) x45) (= x45 (x83 (x83 x80 x45) x80))) (= x45 (x83 (x83 x45 x45) x45)))) (= (x83 (x83 x64 x45) x64) x45))) (and (= (x83 (x83 x64 x18) x64) x18) (and (= x18 (x83 (x83 x18 x18) x18)) (and (and (= x18 (x83 (x83 x137 x18) x137)) (= x18 (x83 (x83 x80 x18) x80))) (= (x83 (x83 x45 x18) x45) x18))))) (and (and (and (= (x83 (x83 x45 x64) x45) x64) (and (= (x83 (x83 x137 x64) x137) x64) (= (x83 (x83 x80 x64) x80) x64))) (= x64 (x83 (x83 x18 x64) x18))) (= x64 (x83 (x83 x64 x64) x64)))))
(assert (let ((x48 (x83 x137 x137)) (x82 (x83 x18 x137)) (x62 (x83 x18 x45)) (x122 (x83 x80 x137)) (x142 (x83 x80 x80)) (x3 (x83 x64 x18)) (x153 (x83 x45 x80)) (x112 (x83 x137 x18)) (x15 (x83 x45 x18)) (x99 (x83 x64 x80)) (x51 (x83 x45 x64)) (x87 (x83 x137 x64)) (x120 (x83 x64 x45)) (x53 (x83 x45 x45)) (x117 (x83 x64 x64)) (x5 (x83 x18 x64)) (x132 (x83 x80 x45)) (x111 (x83 x137 x45)) (x29 (x83 x18 x18)) (x13 (x83 x45 x137)) (x77 (x83 x80 x18)) (x26 (x83 x137 x80)) (x17 (x83 x64 x137)) (x115 (x83 x80 x64)) (x144 (x83 x18 x80))) (let ((x139 (not (= x80 x153))) (x121 (not (= x80 x112))) (x88 (not (= x99 x64))) (x130 (not (= x137 x111))) (x147 (not (= x26 x137))) (x93 (not (= x45 x120))) (x140 (not (= x26 x80))) (x151 (not (= x80 x3))) (x85 (not (= x62 x80))) (x156 (not (= x77 x18))) (x66 (not (= x48 x137))) (x91 (not (= x45 x117))) (x52 (not (= x120 x18))) (x72 (not (= x137 x115))) (x106 (not (= x120 x80))) (x65 (not (= x15 x137))) (x96 (not (= x137 x144))) (x119 (not (= x51 x80))) (x76 (not (= x111 x45))) (x31 (not (= x137 x142))) (x141 (not (= x45 x115))) (x55 (not (= x45 x62))) (x4 (not (= x132 x18))) (x146 (not (= x48 x18))) (x154 (not (= x3 x64))) (x41 (not (= x82 x80))) (x43 (not (= x137 x29))) (x56 (not (= x153 x45))) (x95 (not (= x53 x45))) (x36 (not (= x62 x18))) (x110 (not (= x142 x64))) (x24 (not (= x111 x80))) (x97 (not (= x142 x80))) (x38 (not (= x80 x99))) (x78 (not (= x82 x45))) (x40 (not (= x45 x87))) (x150 (not (= x45 x51))) (x143 (not (= x137 x62))) (x158 (not (= x142 x45))) (x58 (not (= x48 x64))) (x6 (not (= x26 x45))) (x86 (not (= x142 x18))) (x70 (not (= x80 x77))) (x94 (not (= x77 x45))) (x123 (not (= x18 x17))) (x28 (not (= x144 x64))) (x12 (not (= x53 x80))) (x57 (not (= x18 x87))) (x118 (not (= x17 x137))) (x68 (not (= x117 x137))) (x103 (not (= x45 x122))) (x128 (not (= x5 x18))) (x157 (not (= x115 x64))) (x32 (not (= x111 x18))) (x46 (not (= x80 x117))) (x33 (not (= x5 x45))) (x90 (not (= x132 x64))) (x74 (not (= x45 x29))) (x92 (not (= x82 x137))) (x126 (not (= x45 x13))) (x89 (not (= x137 x99))) (x69 (not (= x137 x112))) (x113 (not (= x18 x13))) (x16 (not (= x64 x26))) (x133 (not (= x45 x99))) (x124 (not (= x13 x137))) (x136 (not (= x80 x17))) (x61 (not (= x77 x64))) (x138 (not (= x80 x29))) (x14 (not (= x45 x48))) (x1 (not (= x64 x87))) (x54 (not (= x18 x53))) (x84 (not (= x64 x111))) (x44 (not (= x13 x64))) (x39 (not (= x82 x64))) (x59 (not (= x64 x117))) (x159 (not (= x64 x122))) (x152 (not (= x18 x117))) (x21 (not (= x132 x80))) (x8 (not (= x18 x3))) (x19 (not (= x144 x18))) (x131 (not (= x18 x15))) (x127 (not (= x17 x64))) (x25 (not (= x3 x45))) (x27 (not (= x64 x153))) (x75 (not (= x99 x18))) (x71 (not (= x137 x51))) (x148 (not (= x112 x18))) (x134 (not (= x51 x64))) (x9 (not (= x137 x53))) (x105 (not (= x18 x122))) (x109 (not (= x137 x87))) (x135 (not (= x80 x115))) (x129 (not (= x132 x45))) (x102 (not (= x45 x17))) (x116 (not (= x132 x137))) (x49 (not (= x77 x137))) (x22 (not (= x29 x18))) (x42 (not (= x64 x120))) (x107 (not (= x15 x80))) (x35 (not (= x3 x137))) (x67 (not (= x45 x15))) (x104 (not (= x153 x137))) (x125 (not (= x45 x144))) (x63 (not (= x62 x64))) (x10 (not (= x115 x18))) (x2 (not (= x80 x144))) (x30 (not (= x80 x5))) (x37 (not (= x18 x82))) (x20 (not (= x64 x53))) (x149 (not (= x137 x120))) (x50 (not (= x112 x64))) (x108 (not (= x80 x87))) (x145 (not (= x137 x122))) (x47 (not (= x112 x45))) (x34 (not (= x80 x122))) (x98 (not (= x51 x18))) (x73 (not (= x137 x5))) (x155 (not (= x80 x13))) (x11 (not (= x80 x48))) (x79 (not (= x64 x29))) (x7 (not (= x5 x64))) (x23 (not (= x18 x153))) (x81 (not (= x15 x64))) (x100 (not (= x18 x26)))) (or (and (and (and (or x154 x7) (and (or x42 x134) (and (or x88 x157) (or x1 x127)))) (or x59 x59)) (and (and (and (and (or x81 x63) (and (and (or x27 x90) (or x44 x84)) (or x20 x20))) (or x42 x134)) (and (and (or x88 x157) (and (and (and (or x110 x110) (or x159 x16)) (or x27 x90)) (or x28 x61))) (and (or x1 x127) (and (or x50 x39) (and (and (or x16 x159) (or x58 x58)) (or x84 x44)))))) (and (or x154 x7) (and (or x79 x79) (and (and (or x50 x39) (or x61 x28)) (or x63 x81)))))) (or (or (or (and (and (and (or x30 x151) (and (and (or x85 x107) (and (or x41 x121) (or x70 x2))) (or x138 x138))) (and (and (and (or x135 x38) (and (and (and (or x97 x97) (or x140 x34)) (or x139 x21)) (or x2 x70))) (and (and (and (or x155 x24) (and (or x11 x11) (or x34 x140))) (or x121 x41)) (or x136 x108))) (and (and (or x85 x107) (and (and (or x155 x24) (or x139 x21)) (or x12 x12))) (or x119 x106)))) (and (or x46 x46) (and (and (or x119 x106) (and (or x38 x135) (or x136 x108))) (or x30 x151)))) (and (and (and (and (and (and (or x96 x49) (and (and (or x31 x31) (or x147 x145)) (or x116 x104))) (or x72 x89)) (and (and (and (and (or x66 x66) (or x145 x147)) (or x124 x130)) (or x69 x92)) (or x118 x109))) (and (or x149 x71) (and (and (or x9 x9) (and (or x104 x116) (or x124 x130))) (or x143 x65)))) (and (or x73 x35) (and (and (or x143 x65) (and (or x69 x92) (or x96 x49))) (or x43 x43)))) (and (or x68 x68) (and (and (or x149 x71) (and (or x118 x109) (or x89 x72))) (or x73 x35))))) (and (and (and (or x25 x33) (and (or x150 x93) (and (or x141 x133) (or x102 x40)))) (or x91 x91)) (and (and (and (or x150 x93) (and (and (and (or x76 x126) (or x56 x129)) (or x95 x95)) (or x67 x55))) (and (and (or x133 x141) (and (and (or x129 x56) (and (or x6 x103) (or x158 x158))) (or x94 x125))) (and (or x40 x102) (and (or x47 x78) (and (and (or x14 x14) (or x6 x103)) (or x76 x126)))))) (and (or x25 x33) (and (and (and (or x94 x125) (or x47 x78)) (or x55 x67)) (or x74 x74)))))) (and (and (and (or x8 x128) (and (or x22 x22) (and (or x131 x36) (and (or x148 x37) (or x156 x19))))) (and (and (and (and (or x37 x148) (and (and (or x100 x105) (or x146 x146)) (or x32 x113))) (or x57 x123)) (and (and (or x19 x156) (and (and (or x105 x100) (or x86 x86)) (or x23 x4))) (or x75 x10))) (and (or x52 x98) (and (or x36 x131) (and (or x54 x54) (and (or x4 x23) (or x113 x32))))))) (and (and (and (or x98 x52) (and (or x57 x123) (or x10 x75))) (or x128 x8)) (or x152 x152))))))))
(assert (or (and (and (and (and (not (= x137 (x83 x64 (x83 x64 x137)))) (not (= x80 (x83 x64 (x83 x64 x80))))) (not (= (x83 x64 (x83 x64 x45)) x45))) (not (= (x83 x64 (x83 x64 x18)) x18))) (not (= x64 (x83 x64 (x83 x64 x64))))) (or (and (not (= (x83 x18 (x83 x18 x64)) x64)) (and (and (not (= x45 (x83 x18 (x83 x18 x45)))) (and (not (= (x83 x18 (x83 x18 x80)) x80)) (not (= (x83 x18 (x83 x18 x137)) x137)))) (not (= (x83 x18 (x83 x18 x18)) x18)))) (or (and (and (and (and (not (= x137 (x83 x45 (x83 x45 x137)))) (not (= (x83 x45 (x83 x45 x80)) x80))) (not (= x45 (x83 x45 (x83 x45 x45))))) (not (= (x83 x45 (x83 x45 x18)) x18))) (not (= x64 (x83 x45 (x83 x45 x64))))) (or (and (and (and (and (not (= x80 (x83 x137 (x83 x137 x80)))) (not (= (x83 x137 (x83 x137 x137)) x137))) (not (= (x83 x137 (x83 x137 x45)) x45))) (not (= x18 (x83 x137 (x83 x137 x18))))) (not (= x64 (x83 x137 (x83 x137 x64))))) (and (and (not (= (x83 x80 (x83 x80 x18)) x18)) (and (and (not (= (x83 x80 (x83 x80 x80)) x80)) (not (= x137 (x83 x80 (x83 x80 x137))))) (not (= x45 (x83 x80 (x83 x80 x45)))))) (not (= (x83 x80 (x83 x80 x64)) x64))))))))
(assert (or (and (and (and (and (not (= (x83 x137 x64) x137)) (not (= (x83 x80 x64) x80))) (not (= x45 (x83 x45 x64)))) (not (= (x83 x18 x64) x18))) (not (= x64 (x83 x64 x64)))) (or (or (or (and (not (= x64 (x83 x64 x137))) (and (not (= x18 (x83 x18 x137))) (and (and (not (= (x83 x80 x137) x80)) (not (= x137 (x83 x137 x137)))) (not (= (x83 x45 x137) x45))))) (and (not (= x64 (x83 x64 x80))) (and (not (= (x83 x18 x80) x18)) (and (not (= (x83 x45 x80) x45)) (and (not (= (x83 x80 x80) x80)) (not (= (x83 x137 x80) x137))))))) (and (and (not (= x18 (x83 x18 x45))) (and (and (not (= (x83 x137 x45) x137)) (not (= (x83 x80 x45) x80))) (not (= x45 (x83 x45 x45))))) (not (= (x83 x64 x45) x64)))) (and (and (and (not (= (x83 x45 x18) x45)) (and (not (= (x83 x137 x18) x137)) (not (= x80 (x83 x80 x18))))) (not (= (x83 x18 x18) x18))) (not (= (x83 x64 x18) x64))))))
(check-sat)
(exit)
